output/online_bpp/data/smoke_data/smoke_data.txt
100 10
48
66
48
32
72
37
41
21
58
35
