output/tsp/data/smoke_data/smoke_data.tsp
NAME : case_0
TYPE : TSP
DIMENSION : 4
EDGE_WEIGHT_TYPE : EUC_2D
NODE_COORD_SECTION
1   0.0  0.0
2   0.0  100.0
3   100.0  100.0
4   80.0  80.0
EOF
