src/problems/mkp/data/smoke_data/smoke_data.mkp
 3 3 
 100 200 300
 30 40 50
 50 30 40
 40 50 30
 300 200 100